4 
5  14 36 56 
6  10 17 25 32 40 48 54 
7  03 10 18 24 30 38 45 53 
8  00 08 15 23 30 38 45 53 
9  00 08 15 23 30 38 45 53 
10  00 08 15 23 30 38 45 53 
11  00 08 15 23 30 38 45 53 
12  00 08 15 23 30 38 45 53 
13  00 08 15 24 31 39 46 54 
14  01 09 16 24 31 39 46 54 
15  01 09 16 24 30 39 46 54 
16  01 09 16 24 30 39 46 54 
17  01 09 16 24 31 39 46 54 
18  01 09 16 24 31 39 46 54 
19  02 09 16 23 30 38 45 53 
20  00 08 15 23 30 40 55 
21  10 25 40 55 
22  10 25 37 50 
23  05 20 
0 
